(set-logic QF_S)
(declare-fun var0 () String)
(declare-fun var1 () Int)
(declare-fun var2 () String)
(declare-fun var3 () String)
(declare-fun var4 () String)
(declare-fun var5 () Bool)
(declare-fun var6 () Int)
(declare-fun var7 () Int)
(declare-fun var8 () Int)
(assert (str.suffixof (str.at var0 var1) (str.replace var2 var3 var4)))
(assert (not var5))
(assert (<= var6 var7))
(assert (str.contains (str.substr var2 var8 var8) (str.substr var3 var1 var6)))
(check-sat)